solution status: optimal solution found
objective value:                     193857.687056436
d11(0,0)                                            1 	(obj:0)
d11(1,1)                                            1 	(obj:0)
d11(2,5)                             1.00000000000001 	(obj:0)
d11(3,7)                                            1 	(obj:0)
d11(3,9)                                            1 	(obj:0)
d11(3,11)                                           1 	(obj:0)
d11(3,13)                                           1 	(obj:0)
d11(4,15)                                           1 	(obj:0)
d11(4,16)                                           1 	(obj:0)
d11(4,17)                                           1 	(obj:0)
d11(4,19)                                           1 	(obj:0)
d11(4,21)                                           1 	(obj:0)
d11(4,22)                                           1 	(obj:0)
d11(4,23)                                           1 	(obj:0)
d11(4,25)                                           1 	(obj:0)
d11(4,27)                                           1 	(obj:0)
d11(4,28)                                           1 	(obj:0)
d11(4,29)                                           1 	(obj:0)
d11(5,31)                                           1 	(obj:0)
d11(5,33)                                           1 	(obj:0)
d11(5,35)                                           1 	(obj:0)
d11(5,37)                                           1 	(obj:0)
d11(5,39)                                           1 	(obj:0)
d11(5,41)                                           1 	(obj:0)
d11(5,43)                                           1 	(obj:0)
d11(5,44)                                           1 	(obj:0)
d11(5,45)                                           1 	(obj:0)
d11(5,46)                                           1 	(obj:0)
d11(5,47)                                           1 	(obj:0)
d11(5,48)                                           1 	(obj:0)
d11(5,49)                                           1 	(obj:0)
d11(5,50)                                           1 	(obj:0)
d11(5,51)                                           1 	(obj:0)
d11(5,53)                                           1 	(obj:0)
d11(5,55)                                           1 	(obj:0)
d11(5,57)                                           1 	(obj:0)
d11(5,59)                                           1 	(obj:0)
d11(5,61)                                           1 	(obj:0)
d11(6,63)                                           1 	(obj:0)
d11(6,65)                                           1 	(obj:0)
d11(6,67)                                           1 	(obj:0)
d11(6,69)                                           1 	(obj:0)
d11(6,71)                                           1 	(obj:0)
d11(6,73)                                           1 	(obj:0)
d11(6,75)                                           1 	(obj:0)
d11(6,77)                                           1 	(obj:0)
d11(6,79)                                           1 	(obj:0)
d11(6,81)                                           1 	(obj:0)
d11(6,83)                                           1 	(obj:0)
d11(6,85)                                           1 	(obj:0)
d11(6,87)                                           1 	(obj:0)
d11(6,89)                                           1 	(obj:0)
d11(6,91)                                           1 	(obj:0)
d11(6,93)                                           1 	(obj:0)
d11(6,95)                                           1 	(obj:0)
d11(6,97)                                           1 	(obj:0)
d11(6,99)                                           1 	(obj:0)
d11(6,101)                                          1 	(obj:0)
d11(6,103)                                          1 	(obj:0)
d11(6,105)                                          1 	(obj:0)
d11(6,107)                                          1 	(obj:0)
d11(6,109)                                          1 	(obj:0)
d11(6,111)                                          1 	(obj:0)
d11(6,113)                                          1 	(obj:0)
d11(6,115)                                          1 	(obj:0)
d11(6,117)                                          1 	(obj:0)
d11(6,119)                                          1 	(obj:0)
d11(6,121)                                          1 	(obj:0)
d11(6,123)                                          1 	(obj:0)
d11(6,125)                                          1 	(obj:0)
d12(1,2)                                            1 	(obj:0)
d12(2,4)                                            1 	(obj:0)
d12(2,6)                                            1 	(obj:0)
d12(3,8)                                            1 	(obj:0)
d12(3,10)                                           1 	(obj:0)
d12(3,12)                                           1 	(obj:0)
d12(3,14)                                           1 	(obj:0)
d12(6,64)                                           1 	(obj:0)
d12(6,66)                                           1 	(obj:0)
d12(6,68)                                           1 	(obj:0)
d12(6,70)                                           1 	(obj:0)
d12(6,72)                                           1 	(obj:0)
d12(6,74)                                           1 	(obj:0)
d12(6,76)                                           1 	(obj:0)
d12(6,78)                                           1 	(obj:0)
d12(6,80)                                           1 	(obj:0)
d12(6,82)                                           1 	(obj:0)
d12(6,84)                                           1 	(obj:0)
d12(6,86)                                           1 	(obj:0)
d12(6,88)                                           1 	(obj:0)
d12(6,90)                                           1 	(obj:0)
d12(6,92)                                           1 	(obj:0)
d12(6,94)                                           1 	(obj:0)
d12(6,96)                                           1 	(obj:0)
d12(6,98)                                           1 	(obj:0)
d12(6,100)                                          1 	(obj:0)
d12(6,102)                                          1 	(obj:0)
d12(6,104)                                          1 	(obj:0)
d12(6,106)                                          1 	(obj:0)
d12(6,108)                                          1 	(obj:0)
d12(6,110)                                          1 	(obj:0)
d12(6,112)                                          1 	(obj:0)
d12(6,114)                                          1 	(obj:0)
d12(6,116)                                          1 	(obj:0)
d12(6,118)                                          1 	(obj:0)
d12(6,120)                                          1 	(obj:0)
d12(6,122)                                          1 	(obj:0)
d12(6,124)                                          1 	(obj:0)
d12(6,126)                                          1 	(obj:0)
d21(4,15)                                           1 	(obj:0)
d21(5,31)                                           1 	(obj:0)
d21(5,32)                                           1 	(obj:0)
d21(5,33)                                           1 	(obj:0)
d21(5,34)                                           1 	(obj:0)
d21(5,35)                                           1 	(obj:0)
d21(5,36)                                           1 	(obj:0)
d21(5,37)                                           1 	(obj:0)
d21(5,39)                                           1 	(obj:0)
d21(5,40)                                           1 	(obj:0)
d21(5,41)                                           1 	(obj:0)
d21(5,43)                                           1 	(obj:0)
d21(5,47)                                           1 	(obj:0)
d21(5,48)                                           1 	(obj:0)
d21(5,49)                                           1 	(obj:0)
d21(5,51)                                           1 	(obj:0)
d21(5,55)                                           1 	(obj:0)
d21(6,63)                                           1 	(obj:0)
d21(6,64)                                           1 	(obj:0)
d21(6,65)                                           1 	(obj:0)
d21(6,66)                                           1 	(obj:0)
d21(6,67)                                           1 	(obj:0)
d21(6,68)                                           1 	(obj:0)
d21(6,69)                                           1 	(obj:0)
d21(6,70)                                           1 	(obj:0)
d21(6,71)                                           1 	(obj:0)
d21(6,72)                                           1 	(obj:0)
d21(6,73)                                           1 	(obj:0)
d21(6,74)                                           1 	(obj:0)
d21(6,75)                                           1 	(obj:0)
d21(6,76)                                           1 	(obj:0)
d21(6,79)                                           1 	(obj:0)
d21(6,80)                                           1 	(obj:0)
d21(6,81)                                           1 	(obj:0)
d21(6,82)                                           1 	(obj:0)
d21(6,83)                                           1 	(obj:0)
d21(6,84)                                           1 	(obj:0)
d21(6,85)                                           1 	(obj:0)
d21(6,87)                                           1 	(obj:0)
d21(6,88)                                           1 	(obj:0)
d21(6,89)                                           1 	(obj:0)
d21(6,91)                                           1 	(obj:0)
d21(6,95)                                           1 	(obj:0)
d21(6,96)                                           1 	(obj:0)
d21(6,97)                                           1 	(obj:0)
d21(6,98)                                           1 	(obj:0)
d21(6,99)                                           1 	(obj:0)
d21(6,100)                                          1 	(obj:0)
d21(6,103)                                          1 	(obj:0)
d21(6,104)                                          1 	(obj:0)
d21(6,105)                                          1 	(obj:0)
d21(6,107)                                          1 	(obj:0)
d21(6,111)                                          1 	(obj:0)
d21(6,112)                                          1 	(obj:0)
d21(6,113)                                          1 	(obj:0)
d21(6,115)                                          1 	(obj:0)
d21(6,119)                                          1 	(obj:0)
y2(6,100)                            1385.48851144891 	(obj:0)
y2(6,102)                            1385.48851144891 	(obj:0)
y2(6,104)                            1385.48851144891 	(obj:0)
y2(6,106)                            1385.48851144891 	(obj:0)
y2(6,108)                            1385.48851144891 	(obj:0)
y2(6,110)                            1385.48851144891 	(obj:0)
y2(6,112)                            1385.48851144891 	(obj:0)
y2(6,114)                            1385.48851144891 	(obj:0)
y2(6,116)                            1385.48851144891 	(obj:0)
y2(6,118)                            1385.48851144891 	(obj:0)
y2(6,120)                            1385.48851144891 	(obj:0)
y2(6,122)                            1385.48851144891 	(obj:0)
y2(6,124)                            1385.48851144891 	(obj:0)
y2(6,126)                            1385.48851144891 	(obj:0)
STE(1,1)                             11428.9149591496 	(obj:0)
STE(0,0)                                        12600 	(obj:0)
STE(1,2)                             12763.0850408503 	(obj:0)
STE(2,3)                             10420.9149591496 	(obj:0)
STE(2,4)                             11737.1290450261 	(obj:0)
STE(2,5)                             11755.0850408503 	(obj:0)
STE(2,6)                             13071.2991267269 	(obj:0)
STE(3,7)                             9249.82991829929 	(obj:0)
STE(3,8)                                        10584 	(obj:0)
STE(3,9)                             10566.0440041758 	(obj:0)
STE(3,10)                            11900.2140858765 	(obj:0)
STE(3,11)                                       10584 	(obj:0)
STE(3,12)                            11918.1700817007 	(obj:0)
STE(3,13)                            11900.2140858765 	(obj:0)
STE(3,14)                            13234.3841675772 	(obj:0)
STE(4,15)                            6583.58001941045 	(obj:0)
STE(4,16)                            8241.82991829927 	(obj:0)
STE(4,17)                            7917.75010111115 	(obj:0)
STE(4,18)                                        9576 	(obj:0)
STE(4,19)                            7899.79410528696 	(obj:0)
STE(4,20)                             9558.0440041758 	(obj:0)
STE(4,21)                            9233.96418698766 	(obj:0)
STE(4,22)                            10892.2140858765 	(obj:0)
STE(4,23)                            7917.75010111115 	(obj:0)
STE(4,24)                                        9576 	(obj:0)
STE(4,25)                            9251.92018281186 	(obj:0)
STE(4,26)                            10910.1700817007 	(obj:0)
STE(4,27)                            9233.96418698766 	(obj:0)
STE(4,28)                            10892.2140858765 	(obj:0)
STE(4,29)                            10568.1342686884 	(obj:0)
STE(4,30)                            12226.3841675772 	(obj:0)
STE(5,31)                             3917.3301205216 	(obj:0)
STE(5,32)                            5575.58001941045 	(obj:0)
STE(5,33)                            5575.58001941042 	(obj:0)
STE(5,34)                            7233.82991829927 	(obj:0)
STE(5,35)                            5251.50020222231 	(obj:0)
STE(5,36)                            6909.75010111115 	(obj:0)
STE(5,37)                            6909.75010111115 	(obj:0)
STE(5,38)                                        8568 	(obj:0)
STE(5,39)                            5233.54420639811 	(obj:0)
STE(5,40)                            6891.79410528696 	(obj:0)
STE(5,41)                            6891.79410528696 	(obj:0)
STE(5,42)                             8550.0440041758 	(obj:0)
STE(5,43)                            6567.71428809882 	(obj:0)
STE(5,44)                            8225.96418698766 	(obj:0)
STE(5,45)                            8225.96418698763 	(obj:0)
STE(5,46)                            9884.21408587648 	(obj:0)
STE(5,47)                            5251.50020222231 	(obj:0)
STE(5,48)                            6909.75010111115 	(obj:0)
STE(5,49)                            6909.75010111115 	(obj:0)
STE(5,50)                                        8568 	(obj:0)
STE(5,51)                            6585.67028392302 	(obj:0)
STE(5,52)                            8243.92018281186 	(obj:0)
STE(5,53)                            8243.92018281186 	(obj:0)
STE(5,54)                            9902.17008170071 	(obj:0)
STE(5,55)                            6567.71428809882 	(obj:0)
STE(5,56)                            8225.96418698766 	(obj:0)
STE(5,57)                            8225.96418698763 	(obj:0)
STE(5,58)                            9884.21408587648 	(obj:0)
STE(5,59)                            7901.88436979952 	(obj:0)
STE(5,60)                            9560.13426868837 	(obj:0)
STE(5,61)                            9560.13426868837 	(obj:0)
STE(5,62)                            11218.3841675772 	(obj:0)
STE(6,63)                             2909.3301205216 	(obj:0)
STE(6,64)                            4225.54420639807 	(obj:0)
STE(6,65)                            4567.58001941045 	(obj:0)
STE(6,66)                            5883.79410528692 	(obj:0)
STE(6,67)                            4567.58001941042 	(obj:0)
STE(6,68)                            5883.79410528689 	(obj:0)
STE(6,69)                            6225.82991829927 	(obj:0)
STE(6,70)                            7542.04400417573 	(obj:0)
STE(6,71)                            4243.50020222231 	(obj:0)
STE(6,72)                            5559.71428809878 	(obj:0)
STE(6,73)                            5901.75010111115 	(obj:0)
STE(6,74)                            7217.96418698762 	(obj:0)
STE(6,75)                            5901.75010111115 	(obj:0)
STE(6,76)                            7217.96418698762 	(obj:0)
STE(6,77)                                        7560 	(obj:0)
STE(6,78)                            8876.21408587647 	(obj:0)
STE(6,79)                            4225.54420639811 	(obj:0)
STE(6,80)                            5541.75829227458 	(obj:0)
STE(6,81)                            5883.79410528696 	(obj:0)
STE(6,82)                            7200.00819116342 	(obj:0)
STE(6,83)                            5883.79410528696 	(obj:0)
STE(6,84)                            7200.00819116342 	(obj:0)
STE(6,85)                             7542.0440041758 	(obj:0)
STE(6,86)                            8858.25809005227 	(obj:0)
STE(6,87)                            5559.71428809882 	(obj:0)
STE(6,88)                            6875.92837397528 	(obj:0)
STE(6,89)                            7217.96418698766 	(obj:0)
STE(6,90)                            8534.17827286413 	(obj:0)
STE(6,91)                            7217.96418698763 	(obj:0)
STE(6,92)                             8534.1782728641 	(obj:0)
STE(6,93)                            8876.21408587648 	(obj:0)
STE(6,94)                            10192.4281717529 	(obj:0)
STE(6,95)                            4243.50020222231 	(obj:0)
STE(6,96)                            5559.71428809878 	(obj:0)
STE(6,97)                            5901.75010111115 	(obj:0)
STE(6,98)                            7217.96418698762 	(obj:0)
STE(6,99)                            5901.75010111115 	(obj:0)
STE(6,100)                           7217.96418698762 	(obj:0)
STE(6,101)                                       7560 	(obj:0)
STE(6,102)                           8876.21408587647 	(obj:0)
STE(6,103)                           5577.67028392302 	(obj:0)
STE(6,104)                           6893.88436979948 	(obj:0)
STE(6,105)                           7235.92018281186 	(obj:0)
STE(6,106)                           8552.13426868833 	(obj:0)
STE(6,107)                           7235.92018281186 	(obj:0)
STE(6,108)                           8552.13426868833 	(obj:0)
STE(6,109)                           8894.17008170071 	(obj:0)
STE(6,110)                           10210.3841675772 	(obj:0)
STE(6,111)                           5559.71428809882 	(obj:0)
STE(6,112)                           6875.92837397529 	(obj:0)
STE(6,113)                           7217.96418698766 	(obj:0)
STE(6,114)                           8534.17827286413 	(obj:0)
STE(6,115)                           7217.96418698764 	(obj:0)
STE(6,116)                            8534.1782728641 	(obj:0)
STE(6,117)                           8876.21408587648 	(obj:0)
STE(6,118)                           10192.4281717529 	(obj:0)
STE(6,119)                           6893.88436979952 	(obj:0)
STE(6,120)                           8210.09845567599 	(obj:0)
STE(6,121)                           8552.13426868837 	(obj:0)
STE(6,122)                           9868.34835456483 	(obj:0)
STE(6,123)                           8552.13426868837 	(obj:0)
STE(6,124)                           9868.34835456484 	(obj:0)
STE(6,125)                           10210.3841675772 	(obj:0)
STE(6,126)                           11526.5982534537 	(obj:0)
BG(5)                                4196.29249897959 	(obj:10)
WB(1)                                436.369860608342 	(obj:0)
AVE(1)                               3259.55177567504 	(obj:0)
WB(2)                                 586.14594926618 	(obj:0)
AVE(2)                               3259.55588804169 	(obj:0)
WB(3)                                3579.36165209166 	(obj:0)
AVE(3)                               3579.36165209166 	(obj:0)
AVE(4)                               3579.36576445831 	(obj:0)
WB(5)                                3472.77007794174 	(obj:0)
AVE(5)                               3472.77007794174 	(obj:0)
WB(6)                                372.951956291251 	(obj:0)
AVE(6)                                3046.3618950668 	(obj:0)
WG(1)                                 2823.1819150667 	(obj:10)
WG(2)                                2673.40993877551 	(obj:10)
WG(4)                                3579.36576445831 	(obj:10)
WG(6)                                2673.40993877555 	(obj:10)
BG(3)                                2823.18191506668 	(obj:10)
BG(4)                                616.926734521281 	(obj:10)
y1(1,1)                              146.776536765326 	(obj:0)
y1(3,7)                              146.776536765309 	(obj:0)
y1(3,9)                              146.776536765309 	(obj:0)
y1(3,11)                              146.77653676531 	(obj:0)
y1(3,13)                             146.776536765309 	(obj:0)
y1(4,15)                             1492.42490899996 	(obj:0)
y1(4,17)                             1492.42490899996 	(obj:0)
y1(4,19)                             1492.42490899996 	(obj:0)
y1(4,21)                             1492.42490899996 	(obj:0)
y1(4,23)                             1492.42490899996 	(obj:0)
y1(4,25)                             1492.42490899996 	(obj:0)
y1(4,27)                             1492.42490899996 	(obj:0)
y1(4,29)                             1492.42490899996 	(obj:0)
y1(5,31)                             1492.42490899996 	(obj:0)
y1(5,33)                             1492.42490899996 	(obj:0)
y1(5,35)                             1492.42490899996 	(obj:0)
y1(5,37)                             1492.42490899996 	(obj:0)
y1(5,39)                             1492.42490899996 	(obj:0)
y1(5,41)                             1492.42490899996 	(obj:0)
y1(5,43)                             1492.42490899996 	(obj:0)
y1(5,45)                             1492.42490899996 	(obj:0)
y1(5,47)                             1492.42490899996 	(obj:0)
y1(5,49)                             1492.42490899996 	(obj:0)
y1(5,51)                             1492.42490899996 	(obj:0)
y1(5,53)                             1492.42490899996 	(obj:0)
y1(5,55)                             1492.42490899996 	(obj:0)
y1(5,57)                             1492.42490899996 	(obj:0)
y1(5,59)                             1492.42490899996 	(obj:0)
y1(5,61)                             1492.42490899996 	(obj:0)
y2(1,2)                              1232.72109563194 	(obj:0)
y2(2,4)                              1385.48851144895 	(obj:0)
y2(2,6)                              1385.48851144895 	(obj:0)
y2(3,8)                              1232.72109563196 	(obj:0)
y2(3,10)                             1232.72109563196 	(obj:0)
y2(3,12)                             1232.72109563196 	(obj:0)
y2(3,14)                             1232.72109563196 	(obj:0)
y2(6,64)                             1385.48851144891 	(obj:0)
y2(6,66)                             1385.48851144891 	(obj:0)
y2(6,68)                             1385.48851144891 	(obj:0)
y2(6,70)                             1385.48851144891 	(obj:0)
y2(6,72)                             1385.48851144891 	(obj:0)
y2(6,74)                             1385.48851144891 	(obj:0)
y2(6,76)                             1385.48851144891 	(obj:0)
y2(6,78)                             1385.48851144891 	(obj:0)
y2(6,80)                             1385.48851144891 	(obj:0)
y2(6,82)                             1385.48851144891 	(obj:0)
y2(6,84)                             1385.48851144891 	(obj:0)
y2(6,86)                             1385.48851144891 	(obj:0)
y2(6,88)                             1385.48851144891 	(obj:0)
y2(6,90)                             1385.48851144891 	(obj:0)
y2(6,92)                             1385.48851144891 	(obj:0)
y2(6,94)                             1385.48851144891 	(obj:0)
y2(6,96)                             1385.48851144891 	(obj:0)
y2(6,98)                             1385.48851144891 	(obj:0)
